9
0, 855, 917, 691, 783, 161, 805, 860, 1266
855, 0, 449, 245, 333, 762, 821, 127, 472
917, 449, 0, 312, 162, 901, 1202, 575, 848
691, 245, 312, 0, 151, 636, 892, 340, 717
783, 333, 162, 151, 0, 752, 1043, 451, 780
161, 762, 901, 636, 752, 0, 645, 747, 1142
805, 821, 1202, 892, 1043, 645, 0, 714, 918
860, 127, 575, 340, 451, 747, 714, 0, 414
1266, 472, 848, 717, 780, 1142, 918, 414, 0
